453,480
463,564
745,605
893,618
923,582
593,420
575,300
667,318
875,547
745,605
399,794
415,448
441,406
558,237
713,199
491,596
611,503
654,491
533,258
782,93
558,237
452,91
382,-6
339,295
463,564
532,700
470,697
533,258
515,-107
602,-97
1166,249
1184,327
1166,249
227,175
611,503
667,318
945,42
